B=4;
D=1;
P=6;
S=6;
demands = [2 1 1 2 5 1 ];
capacities = [6 5 6 10 7 1 ];
dist_start = [1 10 9 6 2 9 ];
dist = [8 6 8 3 10 10 4 8 10 5 4 8 1 3 3 10 6 8 2 1 1 7 4 4 7 3 3 2 7 3 8 4 8 8 8 9 ];
